<instance format="XCSP3" type="CSP">
  <variables>
    <var id="x0"> 2 6 8 11 16 </var>
    <var as="x0" id="x1"/>
    <var id="x2"> 2 8 11 12 16 </var>
    <var id="x3"> 0 2 8 11 16 </var>
    <var id="x4"> 12 16 </var>
    <var id="x5"> 6 8 11 </var>
    <var id="x6"> 0 8 11 12 16 </var>
    <var id="x7"> 4 7 10 12 14 </var>
    <var id="x8"> 7 10 15..17 </var>
    <var id="x9"> 4 10 12 16 </var>
    <var id="x10"> 10 12 14..17 </var>
    <var id="x11"> 4 12 14..17 </var>
    <var id="x12"> 7 10 14 </var>
    <var id="x13"> 10 15..17 </var>
    <var id="x14"> 4 14 15 </var>
    <var id="x15"> 9 11 14 </var>
    <var id="x16"> 2 5 6 9 11 </var>
    <var id="x17"> 7 11 15 </var>
    <var id="x18"> 5 7 15 </var>
    <var id="x19"> 2 9 11 14 </var>
    <var id="x20"> 6 7 11 14 </var>
    <var id="x21"> 2 5 </var>
    <var id="x22"> 7 9 11 </var>
    <var id="x23"> 1 2 11 </var>
    <var id="x24"> 2 9 11 </var>
    <var id="x25"> 0 10 11 17 </var>
    <var id="x26"> 0 2 9..11 </var>
    <var id="x27"> 0 9 10 12 17 </var>
    <var id="x28"> 1 2 12 17 </var>
    <var id="x29"> 0 1 9 17 </var>
    <var id="x30"> 0 10 17 </var>
    <var id="x31"> 4 13 14 </var>
    <var id="x32"> 4 6 13 </var>
    <var id="x33"> 6 8 14 </var>
    <var id="x34"> 4 8 </var>
    <var id="x35"> 5 8 13 </var>
    <var id="x36"> 5 8 9 14 17 </var>
    <var id="x37"> 9 17 </var>
    <var id="x38"> 5 6 17 </var>
    <var id="x39"> 1 11 15 </var>
    <var id="x40"> 3 9 11 16 </var>
    <var id="x41"> 1 10 11 16 </var>
    <var id="x42"> 1 15 </var>
    <var id="x43"> 9 10 14..16 </var>
    <var id="x44"> 9..11 14 16 </var>
    <var id="x45"> 1 3 9 15 16 </var>
    <var id="x46"> 3 9 11 16 </var>
    <var id="x47"> 1 10 12 17 </var>
    <var id="x48"> 1 10 12 13 </var>
    <var id="x49"> 1 12 13 </var>
    <var id="x50"> 2 8 10 16 </var>
    <var id="x51"> 12 13 16 17 </var>
    <var id="x52"> 8 10 12 17 </var>
    <var id="x53"> 1 16 17 </var>
    <var id="x54"> 1 2 8 </var>
    <var id="x55"> 1 9 11 17 </var>
    <var id="x56"> 1 11 15 </var>
    <var id="x57"> 1 8 11 16 </var>
    <var id="x58"> 3 8 9 11 16 </var>
    <var id="x59"> 1 8 11 16 </var>
    <var id="x60"> 1 8 15 </var>
    <var id="x61"> 3 15..17 </var>
    <var id="x62"> 1 8 15 </var>
    <var id="x63"> 0 1 12 </var>
    <var id="x64"> 0 7 16 17 </var>
    <var id="x65"> 1 8 12 16 </var>
    <var id="x66"> 0 8 9 16 </var>
    <var id="x67"> 12 16 17 </var>
    <var id="x68"> 1 8 12 16 17 </var>
    <var id="x69"> 0 1 9 16 17 </var>
    <var id="x70"> 0 1 8 </var>
    <var id="x71"> 10 12 14 17 </var>
    <var id="x72"> 3 10 12 14 </var>
    <var id="x73"> 6 8 14 </var>
    <var as="x71" id="x74"/>
    <var id="x75"> 6 8 10 14 </var>
    <var id="x76"> 3 6 10 17 </var>
    <var id="x77"> 6 8 14 </var>
    <var id="x78"> 10..12 </var>
    <var id="x79"> 0 10 11 13 16 </var>
    <var id="x80"> 0 5 12 13 </var>
    <var id="x81"> 12 13 16 </var>
    <var id="x82"> 0 5 10 12 </var>
    <var id="x83"> 5 12 16 </var>
    <var id="x84"> 0 5 6 10 16 </var>
    <var id="x85"> 0 11 12 16 </var>
    <var id="x86"> 1 4 10 14 </var>
    <var id="x87"> 1 4 6 </var>
    <var id="x88"> 5 6 8 16 </var>
    <var id="x89"> 5 10 14 16 </var>
    <var id="x90"> 8 10 14 16 </var>
    <var id="x91"> 1 5 8 16 </var>
    <var id="x92"> 1 4 6 8 14 </var>
    <var id="x93"> 8 16 </var>
    <var id="x94"> 0 11 12 15 </var>
    <var id="x95"> 0 11 15 16 </var>
    <var as="x2" id="x96"/>
    <var id="x97"> 0 8 12 15 </var>
    <var id="x98"> 0 8 12 14 </var>
    <var id="x99"> 2 8 12 16 </var>
    <var id="x100"> 0 15 16 </var>
    <var as="x6" id="x101"/>
    <var id="x102"> 10 12 14 </var>
    <var id="x103"> 3 10 12..14 </var>
    <var id="x104"> 14 </var>
    <var id="x105"> 3 5 </var>
    <var id="x106"> 0 5 12 13 15 </var>
    <var id="x107"> 5 10 12 14 15 </var>
    <var id="x108"> 0 3 15 </var>
    <var id="x109"> 0 3 12 </var>
    <var id="x110"> 3 7 10 </var>
    <var id="x111"> 0 7 10 15 16 </var>
    <var id="x112"> 0 7 8 15 </var>
    <var id="x113"> 10 15 16 </var>
    <var id="x114"> 0 8 10 16 </var>
    <var id="x115"> 0 8 10 </var>
    <var id="x116"> 0 3 10 15 16 </var>
    <var id="x117"> 1 3 4 7 14 </var>
    <var id="x118"> 1 7 11 14 </var>
    <var id="x119"> 1 4 11 </var>
    <var id="x120"> 9 14 </var>
    <var id="x121"> 4 14 </var>
    <var id="x122"> 7 11 14 </var>
    <var id="x123"> 1 3 </var>
    <var id="x124"> 0 3 </var>
    <var id="x125"> 1 4 11 17 </var>
    <var id="x126"> 5 15 17 </var>
    <var id="x127"> 4 13 15 17 </var>
    <var id="x128"> 8 11 13 </var>
    <var id="x129"> 5 8 17 </var>
    <var id="x130"> 1 5 8 17 </var>
    <var id="x131"> 1 4 8 15 </var>
    <var id="x132"> 8 11 </var>
    <var id="x133"> 1 4 7 12 13 </var>
    <var id="x134"> 0 1 4 12 13 </var>
    <var id="x135"> 1 2 7 16 </var>
    <var id="x136"> 2 16 </var>
    <var id="x137"> 0 7 13 16 </var>
    <var id="x138"> 7 13 </var>
    <var id="x139"> 0 12 </var>
    <var id="x140"> 0..2 4 </var>
  </variables>
  <constraints>
    <group>
      <allDifferent> %... </allDifferent>
      <args> x0 x1 x2 x3 x4 x5 x6 </args>
      <args> x7 x8 x9 x10 x11 x12 x13 x14 </args>
      <args> x15 x16 x17 x18 x19 x20 x21 x22 </args>
      <args> x23 x24 x25 x26 x27 x28 x29 x30 </args>
      <args> x31 x32 x33 x34 x35 x36 x37 x38 </args>
      <args> x39 x40 x41 x42 x43 x44 x45 x46 </args>
      <args> x47 x48 x49 x50 x51 x52 x53 x54 </args>
      <args> x55 x56 x57 x58 x59 x60 x61 x62 </args>
      <args> x63 x64 x65 x66 x67 x68 x69 x70 </args>
      <args> x71 x72 x73 x74 x75 x76 x77 </args>
      <args> x78 x79 x80 x81 x82 x83 x84 x85 </args>
      <args> x86 x87 x88 x89 x90 x91 x92 x93 </args>
      <args> x94 x95 x96 x97 x98 x99 x100 x101 </args>
      <args> x102 x103 x104 x105 x106 x107 x108 x109 </args>
      <args> x110 x111 x112 x113 x114 x115 x116 </args>
      <args> x117 x118 x119 x120 x121 x122 x123 x124 </args>
      <args> x125 x126 x127 x128 x129 x130 x131 x132 </args>
      <args> x133 x134 x135 x136 x137 x138 x139 x140 </args>
      <args> x15 x47 x55 x71 x78 x86 x102 x125 </args>
      <args> x7 x31 x48 x72 x103 x110 x117 x133 </args>
      <args> x32 x39 x49 x56 x63 x87 x94 x134 </args>
      <args> x0 x23 x33 x57 x73 x104 x118 x135 </args>
      <args> x1 x16 x24 x40 x58 x88 x105 x136 </args>
      <args> x8 x17 x25 x64 x79 x95 x111 x137 </args>
      <args> x2 x9 x34 x41 x59 x65 x96 x119 </args>
      <args> x18 x35 x42 x60 x80 x97 x106 x112 </args>
      <args> x10 x43 x74 x89 x107 x113 x120 x126 </args>
      <args> x3 x19 x26 x44 x50 x66 x90 x114 </args>
      <args> x4 x11 x51 x67 x81 x121 x127 </args>
      <args> x5 x12 x20 x75 x122 x128 x138 </args>
      <args> x27 x36 x52 x82 x98 x115 x129 x139 </args>
      <args> x21 x28 x68 x83 x91 x99 x123 x130 </args>
      <args> x29 x37 x45 x53 x69 x100 x108 </args>
      <args> x13 x30 x38 x61 x76 x84 x116 x124 </args>
      <args> x14 x54 x62 x70 x77 x92 x131 x140 </args>
      <args> x6 x22 x46 x85 x93 x101 x109 x132 </args>
    </group>
  </constraints>
</instance>

